certificates/rado_a11_c47_N30.cnf
c Rad2 upper bound instance: x1 + 11*x2 - x3 = 47, interval [1,30]
p cnf 30 162
1 5 9 0
-1 -5 -9 0
1 6 20 0
-1 -6 -20 0
2 5 10 0
-2 -5 -10 0
2 6 21 0
-2 -6 -21 0
3 5 11 0
-3 -5 -11 0
3 6 22 0
-3 -6 -22 0
1 4 0
-1 -4 0
4 5 12 0
-4 -5 -12 0
4 6 23 0
-4 -6 -23 0
2 4 5 0
-2 -4 -5 0
5 13 0
-5 -13 0
5 6 24 0
-5 -6 -24 0
3 4 6 0
-3 -4 -6 0
5 6 14 0
-5 -6 -14 0
6 25 0
-6 -25 0
4 7 0
-4 -7 0
5 7 15 0
-5 -7 -15 0
6 7 26 0
-6 -7 -26 0
4 5 8 0
-4 -5 -8 0
5 8 16 0
-5 -8 -16 0
6 8 27 0
-6 -8 -27 0
4 6 9 0
-4 -6 -9 0
5 9 17 0
-5 -9 -17 0
6 9 28 0
-6 -9 -28 0
4 7 10 0
-4 -7 -10 0
5 10 18 0
-5 -10 -18 0
6 10 29 0
-6 -10 -29 0
4 8 11 0
-4 -8 -11 0
5 11 19 0
-5 -11 -19 0
6 11 30 0
-6 -11 -30 0
4 9 12 0
-4 -9 -12 0
5 12 20 0
-5 -12 -20 0
4 10 13 0
-4 -10 -13 0
5 13 21 0
-5 -13 -21 0
4 11 14 0
-4 -11 -14 0
5 14 22 0
-5 -14 -22 0
1 3 15 0
-1 -3 -15 0
4 12 15 0
-4 -12 -15 0
5 15 23 0
-5 -15 -23 0
2 3 16 0
-2 -3 -16 0
4 13 16 0
-4 -13 -16 0
5 16 24 0
-5 -16 -24 0
3 17 0
-3 -17 0
4 14 17 0
-4 -14 -17 0
5 17 25 0
-5 -17 -25 0
3 4 18 0
-3 -4 -18 0
4 15 18 0
-4 -15 -18 0
5 18 26 0
-5 -18 -26 0
3 5 19 0
-3 -5 -19 0
4 16 19 0
-4 -16 -19 0
5 19 27 0
-5 -19 -27 0
3 6 20 0
-3 -6 -20 0
4 17 20 0
-4 -17 -20 0
5 20 28 0
-5 -20 -28 0
3 7 21 0
-3 -7 -21 0
4 18 21 0
-4 -18 -21 0
5 21 29 0
-5 -21 -29 0
3 8 22 0
-3 -8 -22 0
4 19 22 0
-4 -19 -22 0
5 22 30 0
-5 -22 -30 0
3 9 23 0
-3 -9 -23 0
4 20 23 0
-4 -20 -23 0
3 10 24 0
-3 -10 -24 0
4 21 24 0
-4 -21 -24 0
3 11 25 0
-3 -11 -25 0
4 22 25 0
-4 -22 -25 0
1 2 26 0
-1 -2 -26 0
3 12 26 0
-3 -12 -26 0
4 23 26 0
-4 -23 -26 0
2 27 0
-2 -27 0
3 13 27 0
-3 -13 -27 0
4 24 27 0
-4 -24 -27 0
2 3 28 0
-2 -3 -28 0
3 14 28 0
-3 -14 -28 0
4 25 28 0
-4 -25 -28 0
2 4 29 0
-2 -4 -29 0
3 15 29 0
-3 -15 -29 0
4 26 29 0
-4 -26 -29 0
2 5 30 0
-2 -5 -30 0
3 16 30 0
-3 -16 -30 0
4 27 30 0
-4 -27 -30 0
