certificates/rado_a11_c47_N30.drat
-27 -30 0
3 4 -30 0
4 -30 0
d 3 4 -30 0
-2 -30 0
d -2 -5 -30 0
-30 0
5 0
-13 0
-3 -4 0
-26 -4 0
d -23 -26 -4 0
-4 0
1 0
7 0
27 0
16 0
10 0
-9 0
-15 0
-2 0
-19 0
-24 0
-8 0
-18 0
12 0
6 0
0
